100 99056

 813 832
679 850
890 633
450 353
894 77
866 754
439 727
382 913
933 731
716 829
929 746
797 631
610 427
116 903
292 651
969 399
320 84
94 291
708 544
735 276
286 222
298 528
469 170
22 801
790 485
318 574
854 148
803 325
662 411
325 809
517 771
445 223
339 617
849 244
484 989
833 953
106 564
142 699
978 802
588 721
510 700
524 959
216 597
719 637
85 850
574 670
571 733
915 235
527 372
138 148
573 506
92 456
204 998
32 612
514 787
85 335
470 832
933 616
720 697
78 295
225 549
674 635
895 590
33 916
813 899
562 971
547 668
958 972
748 833
851 271
354 428
555 239
616 5
322 189
571 5
237 720
144 426
374 313
740 762
917 833
458 976
643 643
104 462
905 306
569 223
781 213
795 410
257 992
530 1
961 198
90 189
684 718
963 353
301 458
862 149
934 405
748 104
232 534
335 98
36 791
